r = [
0,195,85,69,84,170,193,119,99,28,4,128,73,154,32,185,37,145,118,75,84,76,149,28,140,83,0
];
p = [
0,10,19,18,23,8,26,27,18,5,1,5,13,19,8,18,3,19,26,13,28,3,23,26,21,10,0
];
e = [
0,16,6,6,16,4,11,4,4,9,9,5,7,3,14,15,12,10,11,17,5,16,9,13,8,15,0
];
d = [
0,376,254,271,293,406,340,240,343,269,261,294,218,355,259,362,137,319,372,258,208,361,271,204,412,281,423
];
d_bar = [
0,381,264,280,305,410,353,254,352,272,262,297,225,365,263,371,139,329,385,265,222,363,283,217,423,286,423
];
w = [
0,3.2,0.6,0.666666667,1.333333333,1,0.846153846,0.285714286,0.444444444,3,9,1.666666667,1,0.3,3.5,1.666666667,6,1,0.846153846,2.428571429,0.357142857,8,0.75,1,0.727272727,3,0
];
